

******************************************************************************
This program contains Ipopt, a library for large-scale nonlinear optimization.
 Ipopt is released as open source code under the Eclipse Public License (EPL).
         For more information visit https://github.com/coin-or/Ipopt
******************************************************************************

This is Ipopt version 3.14.11, running with linear solver MUMPS 5.5.1.

Number of nonzeros in equality constraint Jacobian...:        0
Number of nonzeros in inequality constraint Jacobian.:       10
Number of nonzeros in Lagrangian Hessian.............:        4

Total number of variables............................:        4
                     variables with only lower bounds:        4
                variables with lower and upper bounds:        0
                     variables with only upper bounds:        0
Total number of equality constraints.................:        0
Total number of inequality constraints...............:        5
        inequality constraints with only lower bounds:        5
   inequality constraints with lower and upper bounds:        0
        inequality constraints with only upper bounds:        0

iter    objective    inf_pr   inf_du lg(mu)  ||d||  lg(rg) alpha_du alpha_pr  ls
   0 -1.0000000e+00 0.00e+00 1.31e+00  -1.0 0.00e+00    -  0.00e+00 0.00e+00   0
   1 -1.3082787e+00 0.00e+00 3.28e-01  -1.0 2.91e-01   0.0 9.64e-01 1.00e+00f  1
   2 -1.4192845e+00 0.00e+00 3.38e-01  -1.7 1.27e-01   0.4 1.00e+00 1.00e+00f  1
   3 -1.8644926e+00 0.00e+00 4.65e-01  -1.7 5.23e-01  -0.1 1.00e+00 1.00e+00f  1
   4 -2.1606548e+00 0.00e+00 5.46e-01  -1.7 2.30e-01   0.4 1.00e+00 1.00e+00f  1
   5 -7.1966267e+00 0.00e+00 1.41e+00  -1.7 2.27e+00  -0.1 8.26e-01 6.95e-01f  1
   6 -7.3511541e+00 0.00e+00 1.17e+01  -1.7 3.20e+01  -0.6 2.25e-01 1.44e-03f  1
   7 -1.3480518e+01 0.00e+00 1.39e+01  -1.7 2.52e+02  -1.1 2.41e-02 1.19e-02f  1
   8 -1.4202100e+01 0.00e+00 4.37e+01  -1.7 4.49e+01    -  1.00e+00 1.02e-02f  1
   9 -1.4846769e+01 0.00e+00 2.00e-07  -1.7 4.25e-01    -  1.00e+00 1.00e+00f  1
iter    objective    inf_pr   inf_du lg(mu)  ||d||  lg(rg) alpha_du alpha_pr  ls
  10 -1.4990903e+01 0.00e+00 1.19e-04  -2.5 8.00e-02    -  1.00e+00 9.98e-01f  1
  11 -1.4999398e+01 0.00e+00 1.50e-09  -3.8 2.14e-03    -  1.00e+00 1.00e+00f  1
  12 -1.4999993e+01 0.00e+00 1.84e-11  -5.7 1.19e-04    -  1.00e+00 1.00e+00f  1
  13 -1.5000000e+01 0.00e+00 2.53e-14  -8.6 1.47e-06    -  1.00e+00 1.00e+00f  1

Number of Iterations....: 13

                                   (scaled)                 (unscaled)
Objective...............:  -1.5000000382478220e+01   -1.5000000382478220e+01
Dual infeasibility......:   2.5313084961453569e-14    2.5313084961453569e-14
Constraint violation....:   0.0000000000000000e+00    0.0000000000000000e+00
Variable bound violation:   9.7136429332926669e-09    9.7136429332926669e-09
Complementarity.........:   2.5065446407017212e-09    2.5065446407017212e-09
Overall NLP error.......:   2.5065446407017212e-09    2.5065446407017212e-09


Number of objective function evaluations             = 14
Number of objective gradient evaluations             = 14
Number of equality constraint evaluations            = 0
Number of inequality constraint evaluations          = 14
Number of equality constraint Jacobian evaluations   = 0
Number of inequality constraint Jacobian evaluations = 14
Number of Lagrangian Hessian evaluations             = 13
Total seconds in IPOPT                               = 0.011

EXIT: Optimal Solution Found.
 
Ipopt 3.14.11: Optimal Solution Found
